swarm_exploration/utils/lkh_mtsp_solver/resource/amtsp2_3.atsp
NAME : amtsp
TYPE : ATSP
DIMENSION : 4
EDGE_WEIGHT_TYPE : EXPLICIT
EDGE_WEIGHT_FORMAT : FULL_MATRIX
EDGE_WEIGHT_SECTION
100000 -100000 100000 100000 
100000 100000 -198 665 
0 0 100000 417 
0 0 417 100000 
