swarm_exploration/utils/lkh_mtsp_solver/resource/amtsp2_3.tour
NAME : amtsp.-100076.tour
COMMENT : Length = -100076
COMMENT : Found by LKH [Keld Helsgaun] Wed Oct 23 18:57:41 2024
TYPE : TOUR
DIMENSION : 3
TOUR_SECTION
1
2
3
-1
EOF
